c CNF file corresponding to a (partial) station packing problem.
p cnf 6433 229
1 2 3 4 5 6 7 8 9 10 11 12 13 14 0
-1 -2 0
-1 -3 0
-1 -4 0
-1 -5 0
-1 -6 0
-1 -7 0
-1 -8 0
-1 -9 0
-1 -10 0
-1 -11 0
-1 -12 0
-1 -13 0
-1 -14 0
-2 -3 0
-2 -4 0
-2 -5 0
-2 -6 0
-2 -7 0
-2 -8 0
-2 -9 0
-2 -10 0
-2 -11 0
-2 -12 0
-2 -13 0
-2 -14 0
-3 -4 0
-3 -5 0
-3 -6 0
-3 -7 0
-3 -8 0
-3 -9 0
-3 -10 0
-3 -11 0
-3 -12 0
-3 -13 0
-3 -14 0
-4 -5 0
-4 -6 0
-4 -7 0
-4 -8 0
-4 -9 0
-4 -10 0
-4 -11 0
-4 -12 0
-4 -13 0
-4 -14 0
-5 -6 0
-5 -7 0
-5 -8 0
-5 -9 0
-5 -10 0
-5 -11 0
-5 -12 0
-5 -13 0
-5 -14 0
-6 -7 0
-6 -8 0
-6 -9 0
-6 -10 0
-6 -11 0
-6 -12 0
-6 -13 0
-6 -14 0
-7 -8 0
-7 -9 0
-7 -10 0
-7 -11 0
-7 -12 0
-7 -13 0
-7 -14 0
-8 -9 0
-8 -10 0
-8 -11 0
-8 -12 0
-8 -13 0
-8 -14 0
-9 -10 0
-9 -11 0
-9 -12 0
-9 -13 0
-9 -14 0
-10 -11 0
-10 -12 0
-10 -13 0
-10 -14 0
-11 -12 0
-11 -13 0
-11 -14 0
-12 -13 0
-12 -14 0
-13 -14 0
6417 6418 6419 6420 6421 6422 6423 6424 6425 6426 6427 6428 6429 6430 6431 6432 6433 0
-6417 -6418 0
-6417 -6419 0
-6417 -6420 0
-6417 -6421 0
-6417 -6422 0
-6417 -6423 0
-6417 -6424 0
-6417 -6425 0
-6417 -6426 0
-6417 -6427 0
-6417 -6428 0
-6417 -6429 0
-6417 -6430 0
-6417 -6431 0
-6417 -6432 0
-6417 -6433 0
-6418 -6419 0
-6418 -6420 0
-6418 -6421 0
-6418 -6422 0
-6418 -6423 0
-6418 -6424 0
-6418 -6425 0
-6418 -6426 0
-6418 -6427 0
-6418 -6428 0
-6418 -6429 0
-6418 -6430 0
-6418 -6431 0
-6418 -6432 0
-6418 -6433 0
-6419 -6420 0
-6419 -6421 0
-6419 -6422 0
-6419 -6423 0
-6419 -6424 0
-6419 -6425 0
-6419 -6426 0
-6419 -6427 0
-6419 -6428 0
-6419 -6429 0
-6419 -6430 0
-6419 -6431 0
-6419 -6432 0
-6419 -6433 0
-6420 -6421 0
-6420 -6422 0
-6420 -6423 0
-6420 -6424 0
-6420 -6425 0
-6420 -6426 0
-6420 -6427 0
-6420 -6428 0
-6420 -6429 0
-6420 -6430 0
-6420 -6431 0
-6420 -6432 0
-6420 -6433 0
-6421 -6422 0
-6421 -6423 0
-6421 -6424 0
-6421 -6425 0
-6421 -6426 0
-6421 -6427 0
-6421 -6428 0
-6421 -6429 0
-6421 -6430 0
-6421 -6431 0
-6421 -6432 0
-6421 -6433 0
-6422 -6423 0
-6422 -6424 0
-6422 -6425 0
-6422 -6426 0
-6422 -6427 0
-6422 -6428 0
-6422 -6429 0
-6422 -6430 0
-6422 -6431 0
-6422 -6432 0
-6422 -6433 0
-6423 -6424 0
-6423 -6425 0
-6423 -6426 0
-6423 -6427 0
-6423 -6428 0
-6423 -6429 0
-6423 -6430 0
-6423 -6431 0
-6423 -6432 0
-6423 -6433 0
-6424 -6425 0
-6424 -6426 0
-6424 -6427 0
-6424 -6428 0
-6424 -6429 0
-6424 -6430 0
-6424 -6431 0
-6424 -6432 0
-6424 -6433 0
-6425 -6426 0
-6425 -6427 0
-6425 -6428 0
-6425 -6429 0
-6425 -6430 0
-6425 -6431 0
-6425 -6432 0
-6425 -6433 0
-6426 -6427 0
-6426 -6428 0
-6426 -6429 0
-6426 -6430 0
-6426 -6431 0
-6426 -6432 0
-6426 -6433 0
-6427 -6428 0
-6427 -6429 0
-6427 -6430 0
-6427 -6431 0
-6427 -6432 0
-6427 -6433 0
-6428 -6429 0
-6428 -6430 0
-6428 -6431 0
-6428 -6432 0
-6428 -6433 0
-6429 -6430 0
-6429 -6431 0
-6429 -6432 0
-6429 -6433 0
-6430 -6431 0
-6430 -6432 0
-6430 -6433 0
-6431 -6432 0
-6431 -6433 0
-6432 -6433 0
